(set-logic QF_S)
(declare-fun _var_0xINPUT_101914_() String)
(declare-fun __woorpje_diseq_pref0_() String)
(declare-fun __woorpje_diseq_suf_l0_() String)
(declare-fun __woorpje_diseq_suf_r0_() String)
(assert (=(str.++  "4aG0Ab2gXe" "")(str.++ _var_0xINPUT_101914_  "")) )
(check-sat)
